SCIP version 5.0.0 [precision: 8 byte] [memory: block] [mode: optimized] [LP solver: NONE] [GitHash: 3bbd232]
Copyright (C) 2002-2017 Konrad-Zuse-Zentrum fuer Informationstechnik Berlin (ZIB)

External codes: 
  Readline EditLine w  GNU library for command line editing (gnu.org/s/readline)
  CppAD 20160000.1     Algorithmic Differentiation of C++ algorithms developed by B. Bell (www.coin-or.org/CppAD)
  ZLIB 1.2.5           General purpose compression library by J. Gailly and M. Adler (zlib.net)
  GMP 6.1.2            GNU Multiple Precision Arithmetic Library developed by T. Granlund (gmplib.org)

user parameter file <scip.set> not found - using default parameters

read problem <../../Split_data/output/statG/6/1_sample_statG.logreg>
============

File name	:	../../Split_data/output/statG/6/1_sample_statG.logreg
Problem name 	:	1_sample_statG
Number of data	:	800
Number of var	:	61
The given data has linear dependence
13 sets of column vector are linearly dependent:

[dim=1] time: 0.042515
[dim=2] time: 0.097452
[dim=3] time: 0.142311
[dim=4] time: 0.194407
[dim=5] time: 0.239557
[dim=6] time: 0.286057
[dim=7] time: 0.332997
[dim=8] time: 0.37605
[dim=9] time: 0.427948
[dim=10] time: 0.46928
[dim=11] time: 0.510055
[dim=12] time: 0.552812
[dim=13] time: 0.593643
[dim=14] time: 0.63404
[dim=15] time: 0.674411
[dim=16] time: 0.713648
[dim=17] time: 0.754094
[dim=18] time: 0.792052
[dim=19] time: 0.829827
[dim=20] time: 0.869616
[dim=21] time: 0.909951
[dim=22] time: 0.94803
[dim=23] time: 0.984367
[dim=24] Time of forward = 1.01706sec.
AIC: 773.676
k: 23

[dim=48] time: 0.115587
[dim=47] time: 0.182569
[dim=46] time: 0.250514
[dim=45] time: 0.326507
[dim=44] time: 0.39497
[dim=43] time: 0.463432
[dim=42] time: 0.532682
[dim=41] time: 0.592046
[dim=40] time: 0.647832
[dim=39] time: 0.710774
[dim=38] time: 0.7697
[dim=37] time: 0.822499
[dim=36] time: 0.863035
[dim=35] time: 0.924929
[dim=34] time: 0.963687
[dim=33] time: 1.00069
[dim=32] time: 1.04774
[dim=31] time: 1.0921
[dim=30] time: 1.1334
[dim=29] time: 1.16832
[dim=28] time: 1.20787
[dim=27] time: 1.2444
[dim=26] Time of backward = 1.26579sec.
AIC: 784.048
k: 27
